c 
c G(k,n,p) graph
c graph gen seed     : 92810
c number of vertices : 50
c max number of edges: 625
c number of classes  : 2
c edge density       : 0.100000
c edge probability   : 0.200000
c data structure     : sparse
c
c           Graph Stats
c number of vertices  : 50
c nonisolated vertices: 50
c number of edges     : 117
c edge density        : 0.095510
c max degree          : 10
c avg degree          : 4.68
c min degree          : 1
p col 50 117
e 1 24
e 1 12
e 2 48
e 2 46
e 2 45
e 2 38
e 2 35
e 2 24
e 2 5
e 3 42
e 3 26
e 3 22
e 3 6
e 4 49
e 4 27
e 4 12
e 5 42
e 5 36
e 5 34
e 5 17
e 6 45
e 6 44
e 6 32
e 6 31
e 6 23
e 7 44
e 7 41
e 7 24
e 7 19
e 8 38
e 8 27
e 8 19
e 8 10
e 9 48
e 9 46
e 9 20
e 9 19
e 10 47
e 10 11
e 11 46
e 11 43
e 11 41
e 11 37
e 11 16
e 12 29
e 12 28
e 12 15
e 13 42
e 13 36
e 13 21
e 13 18
e 13 17
e 14 42
e 15 48
e 15 43
e 15 41
e 15 32
e 15 31
e 15 19
e 17 49
e 17 48
e 17 45
e 17 32
e 18 49
e 18 46
e 18 43
e 18 35
e 18 32
e 19 36
e 19 21
e 20 47
e 21 48
e 21 32
e 22 50
e 22 48
e 22 46
e 22 32
e 23 30
e 24 42
e 24 34
e 25 47
e 25 42
e 25 36
e 25 28
e 26 41
e 27 36
e 27 29
e 28 48
e 28 45
e 28 38
e 28 35
e 29 49
e 29 43
e 29 40
e 29 38
e 30 50
e 30 48
e 30 44
e 30 43
e 30 41
e 30 38
e 31 42
e 31 34
e 31 33
e 32 47
e 32 34
e 34 48
e 35 47
e 35 36
e 36 41
e 37 47
e 37 42
e 39 46
e 42 49
e 42 46
e 43 47
e 45 47
